benchmarks_vrp/CMT4/no_cluster/CMT4_7.vrp
NAME: CMT4_7
TYPE: CVRP
COMMENT: 1028.42 - Cluster Nr.7
DIMENSION: 15
CAPACITY: 200
EDGE_WEIGHT_TYPE: EUC_2D
NODE_COORD_TYPE: TWOD_COORDS
NODE_COORD_SECTION: 
8 26 52
1 41 49
12 37 47
10 37 52
15 24 58
2 35 35
3 42 57
11 30 48
7 25 55
4 27 43
9 37 56
5 38 46
13 30 60
14 31 62
6 31 52
DEPOT_SECTION: 
2
-1
DEMAND_SECTION: 
4 9
1 10
5 12
10 7
7 17
11 15
8 9
2 0
15 19
14 23
6 27
9 5
13 16
12 6
3 8
EOF
