benchmarks_vrp/CMT4/no_cluster/CMT4_7.tour
NAME: CMT4_7 solution
TYPE: TOUR
TOUR_SECTION:
2 4 11 6 8 7 15 13 14 9 3 10 1 12 5 -1
-1
EOF